c created by edge2cnf
p cnf 500 3100
-1 -2 0
-1 -3 0
-1 -4 0
-1 -5 0
-2 -3 0
-2 -4 0
-2 -5 0
-3 -4 0
-3 -5 0
-4 -5 0
1 2 3 4 5 0
-6 -7 0
-6 -8 0
-6 -9 0
-6 -10 0
-7 -8 0
-7 -9 0
-7 -10 0
-8 -9 0
-8 -10 0
-9 -10 0
6 7 8 9 10 0
-11 -12 0
-11 -13 0
-11 -14 0
-11 -15 0
-12 -13 0
-12 -14 0
-12 -15 0
-13 -14 0
-13 -15 0
-14 -15 0
11 12 13 14 15 0
-16 -17 0
-16 -18 0
-16 -19 0
-16 -20 0
-17 -18 0
-17 -19 0
-17 -20 0
-18 -19 0
-18 -20 0
-19 -20 0
16 17 18 19 20 0
-21 -22 0
-21 -23 0
-21 -24 0
-21 -25 0
-22 -23 0
-22 -24 0
-22 -25 0
-23 -24 0
-23 -25 0
-24 -25 0
21 22 23 24 25 0
-26 -27 0
-26 -28 0
-26 -29 0
-26 -30 0
-27 -28 0
-27 -29 0
-27 -30 0
-28 -29 0
-28 -30 0
-29 -30 0
26 27 28 29 30 0
-31 -32 0
-31 -33 0
-31 -34 0
-31 -35 0
-32 -33 0
-32 -34 0
-32 -35 0
-33 -34 0
-33 -35 0
-34 -35 0
31 32 33 34 35 0
-36 -37 0
-36 -38 0
-36 -39 0
-36 -40 0
-37 -38 0
-37 -39 0
-37 -40 0
-38 -39 0
-38 -40 0
-39 -40 0
36 37 38 39 40 0
-41 -42 0
-41 -43 0
-41 -44 0
-41 -45 0
-42 -43 0
-42 -44 0
-42 -45 0
-43 -44 0
-43 -45 0
-44 -45 0
41 42 43 44 45 0
-46 -47 0
-46 -48 0
-46 -49 0
-46 -50 0
-47 -48 0
-47 -49 0
-47 -50 0
-48 -49 0
-48 -50 0
-49 -50 0
46 47 48 49 50 0
-51 -52 0
-51 -53 0
-51 -54 0
-51 -55 0
-52 -53 0
-52 -54 0
-52 -55 0
-53 -54 0
-53 -55 0
-54 -55 0
51 52 53 54 55 0
-56 -57 0
-56 -58 0
-56 -59 0
-56 -60 0
-57 -58 0
-57 -59 0
-57 -60 0
-58 -59 0
-58 -60 0
-59 -60 0
56 57 58 59 60 0
-61 -62 0
-61 -63 0
-61 -64 0
-61 -65 0
-62 -63 0
-62 -64 0
-62 -65 0
-63 -64 0
-63 -65 0
-64 -65 0
61 62 63 64 65 0
-66 -67 0
-66 -68 0
-66 -69 0
-66 -70 0
-67 -68 0
-67 -69 0
-67 -70 0
-68 -69 0
-68 -70 0
-69 -70 0
66 67 68 69 70 0
-71 -72 0
-71 -73 0
-71 -74 0
-71 -75 0
-72 -73 0
-72 -74 0
-72 -75 0
-73 -74 0
-73 -75 0
-74 -75 0
71 72 73 74 75 0
-76 -77 0
-76 -78 0
-76 -79 0
-76 -80 0
-77 -78 0
-77 -79 0
-77 -80 0
-78 -79 0
-78 -80 0
-79 -80 0
76 77 78 79 80 0
-81 -82 0
-81 -83 0
-81 -84 0
-81 -85 0
-82 -83 0
-82 -84 0
-82 -85 0
-83 -84 0
-83 -85 0
-84 -85 0
81 82 83 84 85 0
-86 -87 0
-86 -88 0
-86 -89 0
-86 -90 0
-87 -88 0
-87 -89 0
-87 -90 0
-88 -89 0
-88 -90 0
-89 -90 0
86 87 88 89 90 0
-91 -92 0
-91 -93 0
-91 -94 0
-91 -95 0
-92 -93 0
-92 -94 0
-92 -95 0
-93 -94 0
-93 -95 0
-94 -95 0
91 92 93 94 95 0
-96 -97 0
-96 -98 0
-96 -99 0
-96 -100 0
-97 -98 0
-97 -99 0
-97 -100 0
-98 -99 0
-98 -100 0
-99 -100 0
96 97 98 99 100 0
-101 -102 0
-101 -103 0
-101 -104 0
-101 -105 0
-102 -103 0
-102 -104 0
-102 -105 0
-103 -104 0
-103 -105 0
-104 -105 0
101 102 103 104 105 0
-106 -107 0
-106 -108 0
-106 -109 0
-106 -110 0
-107 -108 0
-107 -109 0
-107 -110 0
-108 -109 0
-108 -110 0
-109 -110 0
106 107 108 109 110 0
-111 -112 0
-111 -113 0
-111 -114 0
-111 -115 0
-112 -113 0
-112 -114 0
-112 -115 0
-113 -114 0
-113 -115 0
-114 -115 0
111 112 113 114 115 0
-116 -117 0
-116 -118 0
-116 -119 0
-116 -120 0
-117 -118 0
-117 -119 0
-117 -120 0
-118 -119 0
-118 -120 0
-119 -120 0
116 117 118 119 120 0
-121 -122 0
-121 -123 0
-121 -124 0
-121 -125 0
-122 -123 0
-122 -124 0
-122 -125 0
-123 -124 0
-123 -125 0
-124 -125 0
121 122 123 124 125 0
-126 -127 0
-126 -128 0
-126 -129 0
-126 -130 0
-127 -128 0
-127 -129 0
-127 -130 0
-128 -129 0
-128 -130 0
-129 -130 0
126 127 128 129 130 0
-131 -132 0
-131 -133 0
-131 -134 0
-131 -135 0
-132 -133 0
-132 -134 0
-132 -135 0
-133 -134 0
-133 -135 0
-134 -135 0
131 132 133 134 135 0
-136 -137 0
-136 -138 0
-136 -139 0
-136 -140 0
-137 -138 0
-137 -139 0
-137 -140 0
-138 -139 0
-138 -140 0
-139 -140 0
136 137 138 139 140 0
-141 -142 0
-141 -143 0
-141 -144 0
-141 -145 0
-142 -143 0
-142 -144 0
-142 -145 0
-143 -144 0
-143 -145 0
-144 -145 0
141 142 143 144 145 0
-146 -147 0
-146 -148 0
-146 -149 0
-146 -150 0
-147 -148 0
-147 -149 0
-147 -150 0
-148 -149 0
-148 -150 0
-149 -150 0
146 147 148 149 150 0
-151 -152 0
-151 -153 0
-151 -154 0
-151 -155 0
-152 -153 0
-152 -154 0
-152 -155 0
-153 -154 0
-153 -155 0
-154 -155 0
151 152 153 154 155 0
-156 -157 0
-156 -158 0
-156 -159 0
-156 -160 0
-157 -158 0
-157 -159 0
-157 -160 0
-158 -159 0
-158 -160 0
-159 -160 0
156 157 158 159 160 0
-161 -162 0
-161 -163 0
-161 -164 0
-161 -165 0
-162 -163 0
-162 -164 0
-162 -165 0
-163 -164 0
-163 -165 0
-164 -165 0
161 162 163 164 165 0
-166 -167 0
-166 -168 0
-166 -169 0
-166 -170 0
-167 -168 0
-167 -169 0
-167 -170 0
-168 -169 0
-168 -170 0
-169 -170 0
166 167 168 169 170 0
-171 -172 0
-171 -173 0
-171 -174 0
-171 -175 0
-172 -173 0
-172 -174 0
-172 -175 0
-173 -174 0
-173 -175 0
-174 -175 0
171 172 173 174 175 0
-176 -177 0
-176 -178 0
-176 -179 0
-176 -180 0
-177 -178 0
-177 -179 0
-177 -180 0
-178 -179 0
-178 -180 0
-179 -180 0
176 177 178 179 180 0
-181 -182 0
-181 -183 0
-181 -184 0
-181 -185 0
-182 -183 0
-182 -184 0
-182 -185 0
-183 -184 0
-183 -185 0
-184 -185 0
181 182 183 184 185 0
-186 -187 0
-186 -188 0
-186 -189 0
-186 -190 0
-187 -188 0
-187 -189 0
-187 -190 0
-188 -189 0
-188 -190 0
-189 -190 0
186 187 188 189 190 0
-191 -192 0
-191 -193 0
-191 -194 0
-191 -195 0
-192 -193 0
-192 -194 0
-192 -195 0
-193 -194 0
-193 -195 0
-194 -195 0
191 192 193 194 195 0
-196 -197 0
-196 -198 0
-196 -199 0
-196 -200 0
-197 -198 0
-197 -199 0
-197 -200 0
-198 -199 0
-198 -200 0
-199 -200 0
196 197 198 199 200 0
-201 -202 0
-201 -203 0
-201 -204 0
-201 -205 0
-202 -203 0
-202 -204 0
-202 -205 0
-203 -204 0
-203 -205 0
-204 -205 0
201 202 203 204 205 0
-206 -207 0
-206 -208 0
-206 -209 0
-206 -210 0
-207 -208 0
-207 -209 0
-207 -210 0
-208 -209 0
-208 -210 0
-209 -210 0
206 207 208 209 210 0
-211 -212 0
-211 -213 0
-211 -214 0
-211 -215 0
-212 -213 0
-212 -214 0
-212 -215 0
-213 -214 0
-213 -215 0
-214 -215 0
211 212 213 214 215 0
-216 -217 0
-216 -218 0
-216 -219 0
-216 -220 0
-217 -218 0
-217 -219 0
-217 -220 0
-218 -219 0
-218 -220 0
-219 -220 0
216 217 218 219 220 0
-221 -222 0
-221 -223 0
-221 -224 0
-221 -225 0
-222 -223 0
-222 -224 0
-222 -225 0
-223 -224 0
-223 -225 0
-224 -225 0
221 222 223 224 225 0
-226 -227 0
-226 -228 0
-226 -229 0
-226 -230 0
-227 -228 0
-227 -229 0
-227 -230 0
-228 -229 0
-228 -230 0
-229 -230 0
226 227 228 229 230 0
-231 -232 0
-231 -233 0
-231 -234 0
-231 -235 0
-232 -233 0
-232 -234 0
-232 -235 0
-233 -234 0
-233 -235 0
-234 -235 0
231 232 233 234 235 0
-236 -237 0
-236 -238 0
-236 -239 0
-236 -240 0
-237 -238 0
-237 -239 0
-237 -240 0
-238 -239 0
-238 -240 0
-239 -240 0
236 237 238 239 240 0
-241 -242 0
-241 -243 0
-241 -244 0
-241 -245 0
-242 -243 0
-242 -244 0
-242 -245 0
-243 -244 0
-243 -245 0
-244 -245 0
241 242 243 244 245 0
-246 -247 0
-246 -248 0
-246 -249 0
-246 -250 0
-247 -248 0
-247 -249 0
-247 -250 0
-248 -249 0
-248 -250 0
-249 -250 0
246 247 248 249 250 0
-251 -252 0
-251 -253 0
-251 -254 0
-251 -255 0
-252 -253 0
-252 -254 0
-252 -255 0
-253 -254 0
-253 -255 0
-254 -255 0
251 252 253 254 255 0
-256 -257 0
-256 -258 0
-256 -259 0
-256 -260 0
-257 -258 0
-257 -259 0
-257 -260 0
-258 -259 0
-258 -260 0
-259 -260 0
256 257 258 259 260 0
-261 -262 0
-261 -263 0
-261 -264 0
-261 -265 0
-262 -263 0
-262 -264 0
-262 -265 0
-263 -264 0
-263 -265 0
-264 -265 0
261 262 263 264 265 0
-266 -267 0
-266 -268 0
-266 -269 0
-266 -270 0
-267 -268 0
-267 -269 0
-267 -270 0
-268 -269 0
-268 -270 0
-269 -270 0
266 267 268 269 270 0
-271 -272 0
-271 -273 0
-271 -274 0
-271 -275 0
-272 -273 0
-272 -274 0
-272 -275 0
-273 -274 0
-273 -275 0
-274 -275 0
271 272 273 274 275 0
-276 -277 0
-276 -278 0
-276 -279 0
-276 -280 0
-277 -278 0
-277 -279 0
-277 -280 0
-278 -279 0
-278 -280 0
-279 -280 0
276 277 278 279 280 0
-281 -282 0
-281 -283 0
-281 -284 0
-281 -285 0
-282 -283 0
-282 -284 0
-282 -285 0
-283 -284 0
-283 -285 0
-284 -285 0
281 282 283 284 285 0
-286 -287 0
-286 -288 0
-286 -289 0
-286 -290 0
-287 -288 0
-287 -289 0
-287 -290 0
-288 -289 0
-288 -290 0
-289 -290 0
286 287 288 289 290 0
-291 -292 0
-291 -293 0
-291 -294 0
-291 -295 0
-292 -293 0
-292 -294 0
-292 -295 0
-293 -294 0
-293 -295 0
-294 -295 0
291 292 293 294 295 0
-296 -297 0
-296 -298 0
-296 -299 0
-296 -300 0
-297 -298 0
-297 -299 0
-297 -300 0
-298 -299 0
-298 -300 0
-299 -300 0
296 297 298 299 300 0
-301 -302 0
-301 -303 0
-301 -304 0
-301 -305 0
-302 -303 0
-302 -304 0
-302 -305 0
-303 -304 0
-303 -305 0
-304 -305 0
301 302 303 304 305 0
-306 -307 0
-306 -308 0
-306 -309 0
-306 -310 0
-307 -308 0
-307 -309 0
-307 -310 0
-308 -309 0
-308 -310 0
-309 -310 0
306 307 308 309 310 0
-311 -312 0
-311 -313 0
-311 -314 0
-311 -315 0
-312 -313 0
-312 -314 0
-312 -315 0
-313 -314 0
-313 -315 0
-314 -315 0
311 312 313 314 315 0
-316 -317 0
-316 -318 0
-316 -319 0
-316 -320 0
-317 -318 0
-317 -319 0
-317 -320 0
-318 -319 0
-318 -320 0
-319 -320 0
316 317 318 319 320 0
-321 -322 0
-321 -323 0
-321 -324 0
-321 -325 0
-322 -323 0
-322 -324 0
-322 -325 0
-323 -324 0
-323 -325 0
-324 -325 0
321 322 323 324 325 0
-326 -327 0
-326 -328 0
-326 -329 0
-326 -330 0
-327 -328 0
-327 -329 0
-327 -330 0
-328 -329 0
-328 -330 0
-329 -330 0
326 327 328 329 330 0
-331 -332 0
-331 -333 0
-331 -334 0
-331 -335 0
-332 -333 0
-332 -334 0
-332 -335 0
-333 -334 0
-333 -335 0
-334 -335 0
331 332 333 334 335 0
-336 -337 0
-336 -338 0
-336 -339 0
-336 -340 0
-337 -338 0
-337 -339 0
-337 -340 0
-338 -339 0
-338 -340 0
-339 -340 0
336 337 338 339 340 0
-341 -342 0
-341 -343 0
-341 -344 0
-341 -345 0
-342 -343 0
-342 -344 0
-342 -345 0
-343 -344 0
-343 -345 0
-344 -345 0
341 342 343 344 345 0
-346 -347 0
-346 -348 0
-346 -349 0
-346 -350 0
-347 -348 0
-347 -349 0
-347 -350 0
-348 -349 0
-348 -350 0
-349 -350 0
346 347 348 349 350 0
-351 -352 0
-351 -353 0
-351 -354 0
-351 -355 0
-352 -353 0
-352 -354 0
-352 -355 0
-353 -354 0
-353 -355 0
-354 -355 0
351 352 353 354 355 0
-356 -357 0
-356 -358 0
-356 -359 0
-356 -360 0
-357 -358 0
-357 -359 0
-357 -360 0
-358 -359 0
-358 -360 0
-359 -360 0
356 357 358 359 360 0
-361 -362 0
-361 -363 0
-361 -364 0
-361 -365 0
-362 -363 0
-362 -364 0
-362 -365 0
-363 -364 0
-363 -365 0
-364 -365 0
361 362 363 364 365 0
-366 -367 0
-366 -368 0
-366 -369 0
-366 -370 0
-367 -368 0
-367 -369 0
-367 -370 0
-368 -369 0
-368 -370 0
-369 -370 0
366 367 368 369 370 0
-371 -372 0
-371 -373 0
-371 -374 0
-371 -375 0
-372 -373 0
-372 -374 0
-372 -375 0
-373 -374 0
-373 -375 0
-374 -375 0
371 372 373 374 375 0
-376 -377 0
-376 -378 0
-376 -379 0
-376 -380 0
-377 -378 0
-377 -379 0
-377 -380 0
-378 -379 0
-378 -380 0
-379 -380 0
376 377 378 379 380 0
-381 -382 0
-381 -383 0
-381 -384 0
-381 -385 0
-382 -383 0
-382 -384 0
-382 -385 0
-383 -384 0
-383 -385 0
-384 -385 0
381 382 383 384 385 0
-386 -387 0
-386 -388 0
-386 -389 0
-386 -390 0
-387 -388 0
-387 -389 0
-387 -390 0
-388 -389 0
-388 -390 0
-389 -390 0
386 387 388 389 390 0
-391 -392 0
-391 -393 0
-391 -394 0
-391 -395 0
-392 -393 0
-392 -394 0
-392 -395 0
-393 -394 0
-393 -395 0
-394 -395 0
391 392 393 394 395 0
-396 -397 0
-396 -398 0
-396 -399 0
-396 -400 0
-397 -398 0
-397 -399 0
-397 -400 0
-398 -399 0
-398 -400 0
-399 -400 0
396 397 398 399 400 0
-401 -402 0
-401 -403 0
-401 -404 0
-401 -405 0
-402 -403 0
-402 -404 0
-402 -405 0
-403 -404 0
-403 -405 0
-404 -405 0
401 402 403 404 405 0
-406 -407 0
-406 -408 0
-406 -409 0
-406 -410 0
-407 -408 0
-407 -409 0
-407 -410 0
-408 -409 0
-408 -410 0
-409 -410 0
406 407 408 409 410 0
-411 -412 0
-411 -413 0
-411 -414 0
-411 -415 0
-412 -413 0
-412 -414 0
-412 -415 0
-413 -414 0
-413 -415 0
-414 -415 0
411 412 413 414 415 0
-416 -417 0
-416 -418 0
-416 -419 0
-416 -420 0
-417 -418 0
-417 -419 0
-417 -420 0
-418 -419 0
-418 -420 0
-419 -420 0
416 417 418 419 420 0
-421 -422 0
-421 -423 0
-421 -424 0
-421 -425 0
-422 -423 0
-422 -424 0
-422 -425 0
-423 -424 0
-423 -425 0
-424 -425 0
421 422 423 424 425 0
-426 -427 0
-426 -428 0
-426 -429 0
-426 -430 0
-427 -428 0
-427 -429 0
-427 -430 0
-428 -429 0
-428 -430 0
-429 -430 0
426 427 428 429 430 0
-431 -432 0
-431 -433 0
-431 -434 0
-431 -435 0
-432 -433 0
-432 -434 0
-432 -435 0
-433 -434 0
-433 -435 0
-434 -435 0
431 432 433 434 435 0
-436 -437 0
-436 -438 0
-436 -439 0
-436 -440 0
-437 -438 0
-437 -439 0
-437 -440 0
-438 -439 0
-438 -440 0
-439 -440 0
436 437 438 439 440 0
-441 -442 0
-441 -443 0
-441 -444 0
-441 -445 0
-442 -443 0
-442 -444 0
-442 -445 0
-443 -444 0
-443 -445 0
-444 -445 0
441 442 443 444 445 0
-446 -447 0
-446 -448 0
-446 -449 0
-446 -450 0
-447 -448 0
-447 -449 0
-447 -450 0
-448 -449 0
-448 -450 0
-449 -450 0
446 447 448 449 450 0
-451 -452 0
-451 -453 0
-451 -454 0
-451 -455 0
-452 -453 0
-452 -454 0
-452 -455 0
-453 -454 0
-453 -455 0
-454 -455 0
451 452 453 454 455 0
-456 -457 0
-456 -458 0
-456 -459 0
-456 -460 0
-457 -458 0
-457 -459 0
-457 -460 0
-458 -459 0
-458 -460 0
-459 -460 0
456 457 458 459 460 0
-461 -462 0
-461 -463 0
-461 -464 0
-461 -465 0
-462 -463 0
-462 -464 0
-462 -465 0
-463 -464 0
-463 -465 0
-464 -465 0
461 462 463 464 465 0
-466 -467 0
-466 -468 0
-466 -469 0
-466 -470 0
-467 -468 0
-467 -469 0
-467 -470 0
-468 -469 0
-468 -470 0
-469 -470 0
466 467 468 469 470 0
-471 -472 0
-471 -473 0
-471 -474 0
-471 -475 0
-472 -473 0
-472 -474 0
-472 -475 0
-473 -474 0
-473 -475 0
-474 -475 0
471 472 473 474 475 0
-476 -477 0
-476 -478 0
-476 -479 0
-476 -480 0
-477 -478 0
-477 -479 0
-477 -480 0
-478 -479 0
-478 -480 0
-479 -480 0
476 477 478 479 480 0
-481 -482 0
-481 -483 0
-481 -484 0
-481 -485 0
-482 -483 0
-482 -484 0
-482 -485 0
-483 -484 0
-483 -485 0
-484 -485 0
481 482 483 484 485 0
-486 -487 0
-486 -488 0
-486 -489 0
-486 -490 0
-487 -488 0
-487 -489 0
-487 -490 0
-488 -489 0
-488 -490 0
-489 -490 0
486 487 488 489 490 0
-491 -492 0
-491 -493 0
-491 -494 0
-491 -495 0
-492 -493 0
-492 -494 0
-492 -495 0
-493 -494 0
-493 -495 0
-494 -495 0
491 492 493 494 495 0
-496 -497 0
-496 -498 0
-496 -499 0
-496 -500 0
-497 -498 0
-497 -499 0
-497 -500 0
-498 -499 0
-498 -500 0
-499 -500 0
496 497 498 499 500 0
-11 -16 0
-12 -17 0
-13 -18 0
-14 -19 0
-15 -20 0
-26 -46 0
-27 -47 0
-28 -48 0
-29 -49 0
-30 -50 0
-121 -131 0
-122 -132 0
-123 -133 0
-124 -134 0
-125 -135 0
-141 -161 0
-142 -162 0
-143 -163 0
-144 -164 0
-145 -165 0
-156 -161 0
-157 -162 0
-158 -163 0
-159 -164 0
-160 -165 0
-171 -181 0
-172 -182 0
-173 -183 0
-174 -184 0
-175 -185 0
-176 -191 0
-177 -192 0
-178 -193 0
-179 -194 0
-180 -195 0
-191 -201 0
-192 -202 0
-193 -203 0
-194 -204 0
-195 -205 0
-196 -201 0
-197 -202 0
-198 -203 0
-199 -204 0
-200 -205 0
-211 -226 0
-212 -227 0
-213 -228 0
-214 -229 0
-215 -230 0
-246 -256 0
-247 -257 0
-248 -258 0
-249 -259 0
-250 -260 0
-256 -266 0
-257 -267 0
-258 -268 0
-259 -269 0
-260 -270 0
-266 -271 0
-267 -272 0
-268 -273 0
-269 -274 0
-270 -275 0
-296 -316 0
-297 -317 0
-298 -318 0
-299 -319 0
-300 -320 0
-321 -331 0
-322 -332 0
-323 -333 0
-324 -334 0
-325 -335 0
-321 -341 0
-322 -342 0
-323 -343 0
-324 -344 0
-325 -345 0
-331 -346 0
-332 -347 0
-333 -348 0
-334 -349 0
-335 -350 0
-351 -366 0
-352 -367 0
-353 -368 0
-354 -369 0
-355 -370 0
-361 -371 0
-362 -372 0
-363 -373 0
-364 -374 0
-365 -375 0
-371 -386 0
-372 -387 0
-373 -388 0
-374 -389 0
-375 -390 0
-381 -391 0
-382 -392 0
-383 -393 0
-384 -394 0
-385 -395 0
-391 -406 0
-392 -407 0
-393 -408 0
-394 -409 0
-395 -410 0
-396 -401 0
-397 -402 0
-398 -403 0
-399 -404 0
-400 -405 0
-396 -416 0
-397 -417 0
-398 -418 0
-399 -419 0
-400 -420 0
-401 -411 0
-402 -412 0
-403 -413 0
-404 -414 0
-405 -415 0
-416 -426 0
-417 -427 0
-418 -428 0
-419 -429 0
-420 -430 0
-466 -471 0
-467 -472 0
-468 -473 0
-469 -474 0
-470 -475 0
-481 -491 0
-482 -492 0
-483 -493 0
-484 -494 0
-485 -495 0
-1 -66 0
-2 -67 0
-3 -68 0
-4 -69 0
-5 -70 0
-1 -141 0
-2 -142 0
-3 -143 0
-4 -144 0
-5 -145 0
-1 -191 0
-2 -192 0
-3 -193 0
-4 -194 0
-5 -195 0
-1 -226 0
-2 -227 0
-3 -228 0
-4 -229 0
-5 -230 0
-1 -246 0
-2 -247 0
-3 -248 0
-4 -249 0
-5 -250 0
-1 -296 0
-2 -297 0
-3 -298 0
-4 -299 0
-5 -300 0
-1 -381 0
-2 -382 0
-3 -383 0
-4 -384 0
-5 -385 0
-6 -91 0
-7 -92 0
-8 -93 0
-9 -94 0
-10 -95 0
-6 -161 0
-7 -162 0
-8 -163 0
-9 -164 0
-10 -165 0
-6 -196 0
-7 -197 0
-8 -198 0
-9 -199 0
-10 -200 0
-6 -271 0
-7 -272 0
-8 -273 0
-9 -274 0
-10 -275 0
-6 -326 0
-7 -327 0
-8 -328 0
-9 -329 0
-10 -330 0
-6 -391 0
-7 -392 0
-8 -393 0
-9 -394 0
-10 -395 0
-6 -406 0
-7 -407 0
-8 -408 0
-9 -409 0
-10 -410 0
-6 -436 0
-7 -437 0
-8 -438 0
-9 -439 0
-10 -440 0
-6 -461 0
-7 -462 0
-8 -463 0
-9 -464 0
-10 -465 0
-11 -111 0
-12 -112 0
-13 -113 0
-14 -114 0
-15 -115 0
-11 -121 0
-12 -122 0
-13 -123 0
-14 -124 0
-15 -125 0
-11 -141 0
-12 -142 0
-13 -143 0
-14 -144 0
-15 -145 0
-11 -166 0
-12 -167 0
-13 -168 0
-14 -169 0
-15 -170 0
-11 -226 0
-12 -227 0
-13 -228 0
-14 -229 0
-15 -230 0
-11 -241 0
-12 -242 0
-13 -243 0
-14 -244 0
-15 -245 0
-11 -386 0
-12 -387 0
-13 -388 0
-14 -389 0
-15 -390 0
-11 -436 0
-12 -437 0
-13 -438 0
-14 -439 0
-15 -440 0
-16 -111 0
-17 -112 0
-18 -113 0
-19 -114 0
-20 -115 0
-16 -126 0
-17 -127 0
-18 -128 0
-19 -129 0
-20 -130 0
-16 -206 0
-17 -207 0
-18 -208 0
-19 -209 0
-20 -210 0
-16 -316 0
-17 -317 0
-18 -318 0
-19 -319 0
-20 -320 0
-16 -331 0
-17 -332 0
-18 -333 0
-19 -334 0
-20 -335 0
-16 -356 0
-17 -357 0
-18 -358 0
-19 -359 0
-20 -360 0
-21 -96 0
-22 -97 0
-23 -98 0
-24 -99 0
-25 -100 0
-21 -146 0
-22 -147 0
-23 -148 0
-24 -149 0
-25 -150 0
-21 -261 0
-22 -262 0
-23 -263 0
-24 -264 0
-25 -265 0
-21 -446 0
-22 -447 0
-23 -448 0
-24 -449 0
-25 -450 0
-26 -86 0
-27 -87 0
-28 -88 0
-29 -89 0
-30 -90 0
-26 -276 0
-27 -277 0
-28 -278 0
-29 -279 0
-30 -280 0
-26 -306 0
-27 -307 0
-28 -308 0
-29 -309 0
-30 -310 0
-26 -366 0
-27 -367 0
-28 -368 0
-29 -369 0
-30 -370 0
-26 -371 0
-27 -372 0
-28 -373 0
-29 -374 0
-30 -375 0
-26 -376 0
-27 -377 0
-28 -378 0
-29 -379 0
-30 -380 0
-26 -381 0
-27 -382 0
-28 -383 0
-29 -384 0
-30 -385 0
-26 -416 0
-27 -417 0
-28 -418 0
-29 -419 0
-30 -420 0
-31 -56 0
-32 -57 0
-33 -58 0
-34 -59 0
-35 -60 0
-31 -86 0
-32 -87 0
-33 -88 0
-34 -89 0
-35 -90 0
-31 -111 0
-32 -112 0
-33 -113 0
-34 -114 0
-35 -115 0
-31 -121 0
-32 -122 0
-33 -123 0
-34 -124 0
-35 -125 0
-31 -156 0
-32 -157 0
-33 -158 0
-34 -159 0
-35 -160 0
-31 -346 0
-32 -347 0
-33 -348 0
-34 -349 0
-35 -350 0
-31 -376 0
-32 -377 0
-33 -378 0
-34 -379 0
-35 -380 0
-31 -406 0
-32 -407 0
-33 -408 0
-34 -409 0
-35 -410 0
-31 -411 0
-32 -412 0
-33 -413 0
-34 -414 0
-35 -415 0
-31 -446 0
-32 -447 0
-33 -448 0
-34 -449 0
-35 -450 0
-31 -456 0
-32 -457 0
-33 -458 0
-34 -459 0
-35 -460 0
-31 -496 0
-32 -497 0
-33 -498 0
-34 -499 0
-35 -500 0
-36 -96 0
-37 -97 0
-38 -98 0
-39 -99 0
-40 -100 0
-36 -191 0
-37 -192 0
-38 -193 0
-39 -194 0
-40 -195 0
-36 -346 0
-37 -347 0
-38 -348 0
-39 -349 0
-40 -350 0
-36 -496 0
-37 -497 0
-38 -498 0
-39 -499 0
-40 -500 0
-41 -91 0
-42 -92 0
-43 -93 0
-44 -94 0
-45 -95 0
-41 -131 0
-42 -132 0
-43 -133 0
-44 -134 0
-45 -135 0
-41 -156 0
-42 -157 0
-43 -158 0
-44 -159 0
-45 -160 0
-41 -181 0
-42 -182 0
-43 -183 0
-44 -184 0
-45 -185 0
-41 -416 0
-42 -417 0
-43 -418 0
-44 -419 0
-45 -420 0
-41 -481 0
-42 -482 0
-43 -483 0
-44 -484 0
-45 -485 0
-46 -106 0
-47 -107 0
-48 -108 0
-49 -109 0
-50 -110 0
-46 -146 0
-47 -147 0
-48 -148 0
-49 -149 0
-50 -150 0
-46 -161 0
-47 -162 0
-48 -163 0
-49 -164 0
-50 -165 0
-46 -191 0
-47 -192 0
-48 -193 0
-49 -194 0
-50 -195 0
-46 -216 0
-47 -217 0
-48 -218 0
-49 -219 0
-50 -220 0
-46 -311 0
-47 -312 0
-48 -313 0
-49 -314 0
-50 -315 0
-46 -411 0
-47 -412 0
-48 -413 0
-49 -414 0
-50 -415 0
-46 -496 0
-47 -497 0
-48 -498 0
-49 -499 0
-50 -500 0
-51 -96 0
-52 -97 0
-53 -98 0
-54 -99 0
-55 -100 0
-51 -186 0
-52 -187 0
-53 -188 0
-54 -189 0
-55 -190 0
-51 -316 0
-52 -317 0
-53 -318 0
-54 -319 0
-55 -320 0
-51 -331 0
-52 -332 0
-53 -333 0
-54 -334 0
-55 -335 0
-51 -486 0
-52 -487 0
-53 -488 0
-54 -489 0
-55 -490 0
-56 -91 0
-57 -92 0
-58 -93 0
-59 -94 0
-60 -95 0
-56 -186 0
-57 -187 0
-58 -188 0
-59 -189 0
-60 -190 0
-56 -191 0
-57 -192 0
-58 -193 0
-59 -194 0
-60 -195 0
-56 -256 0
-57 -257 0
-58 -258 0
-59 -259 0
-60 -260 0
-56 -281 0
-57 -282 0
-58 -283 0
-59 -284 0
-60 -285 0
-56 -371 0
-57 -372 0
-58 -373 0
-59 -374 0
-60 -375 0
-56 -381 0
-57 -382 0
-58 -383 0
-59 -384 0
-60 -385 0
-56 -436 0
-57 -437 0
-58 -438 0
-59 -439 0
-60 -440 0
-56 -456 0
-57 -457 0
-58 -458 0
-59 -459 0
-60 -460 0
-56 -466 0
-57 -467 0
-58 -468 0
-59 -469 0
-60 -470 0
-61 -96 0
-62 -97 0
-63 -98 0
-64 -99 0
-65 -100 0
-61 -196 0
-62 -197 0
-63 -198 0
-64 -199 0
-65 -200 0
-61 -221 0
-62 -222 0
-63 -223 0
-64 -224 0
-65 -225 0
-61 -251 0
-62 -252 0
-63 -253 0
-64 -254 0
-65 -255 0
-61 -321 0
-62 -322 0
-63 -323 0
-64 -324 0
-65 -325 0
-66 -151 0
-67 -152 0
-68 -153 0
-69 -154 0
-70 -155 0
-66 -401 0
-67 -402 0
-68 -403 0
-69 -404 0
-70 -405 0
-71 -116 0
-72 -117 0
-73 -118 0
-74 -119 0
-75 -120 0
-71 -121 0
-72 -122 0
-73 -123 0
-74 -124 0
-75 -125 0
-71 -126 0
-72 -127 0
-73 -128 0
-74 -129 0
-75 -130 0
-71 -226 0
-72 -227 0
-73 -228 0
-74 -229 0
-75 -230 0
-71 -336 0
-72 -337 0
-73 -338 0
-74 -339 0
-75 -340 0
-71 -396 0
-72 -397 0
-73 -398 0
-74 -399 0
-75 -400 0
-71 -431 0
-72 -432 0
-73 -433 0
-74 -434 0
-75 -435 0
-76 -176 0
-77 -177 0
-78 -178 0
-79 -179 0
-80 -180 0
-76 -181 0
-77 -182 0
-78 -183 0
-79 -184 0
-80 -185 0
-76 -326 0
-77 -327 0
-78 -328 0
-79 -329 0
-80 -330 0
-76 -416 0
-77 -417 0
-78 -418 0
-79 -419 0
-80 -420 0
-76 -456 0
-77 -457 0
-78 -458 0
-79 -459 0
-80 -460 0
-76 -471 0
-77 -472 0
-78 -473 0
-79 -474 0
-80 -475 0
-81 -126 0
-82 -127 0
-83 -128 0
-84 -129 0
-85 -130 0
-81 -141 0
-82 -142 0
-83 -143 0
-84 -144 0
-85 -145 0
-81 -151 0
-82 -152 0
-83 -153 0
-84 -154 0
-85 -155 0
-81 -161 0
-82 -162 0
-83 -163 0
-84 -164 0
-85 -165 0
-81 -171 0
-82 -172 0
-83 -173 0
-84 -174 0
-85 -175 0
-81 -221 0
-82 -222 0
-83 -223 0
-84 -224 0
-85 -225 0
-81 -396 0
-82 -397 0
-83 -398 0
-84 -399 0
-85 -400 0
-81 -471 0
-82 -472 0
-83 -473 0
-84 -474 0
-85 -475 0
-81 -486 0
-82 -487 0
-83 -488 0
-84 -489 0
-85 -490 0
-86 -126 0
-87 -127 0
-88 -128 0
-89 -129 0
-90 -130 0
-86 -151 0
-87 -152 0
-88 -153 0
-89 -154 0
-90 -155 0
-86 -276 0
-87 -277 0
-88 -278 0
-89 -279 0
-90 -280 0
-86 -281 0
-87 -282 0
-88 -283 0
-89 -284 0
-90 -285 0
-86 -316 0
-87 -317 0
-88 -318 0
-89 -319 0
-90 -320 0
-86 -396 0
-87 -397 0
-88 -398 0
-89 -399 0
-90 -400 0
-91 -166 0
-92 -167 0
-93 -168 0
-94 -169 0
-95 -170 0
-91 -256 0
-92 -257 0
-93 -258 0
-94 -259 0
-95 -260 0
-91 -411 0
-92 -412 0
-93 -413 0
-94 -414 0
-95 -415 0
-91 -471 0
-92 -472 0
-93 -473 0
-94 -474 0
-95 -475 0
-96 -131 0
-97 -132 0
-98 -133 0
-99 -134 0
-100 -135 0
-96 -161 0
-97 -162 0
-98 -163 0
-99 -164 0
-100 -165 0
-96 -196 0
-97 -197 0
-98 -198 0
-99 -199 0
-100 -200 0
-96 -276 0
-97 -277 0
-98 -278 0
-99 -279 0
-100 -280 0
-96 -281 0
-97 -282 0
-98 -283 0
-99 -284 0
-100 -285 0
-96 -286 0
-97 -287 0
-98 -288 0
-99 -289 0
-100 -290 0
-96 -321 0
-97 -322 0
-98 -323 0
-99 -324 0
-100 -325 0
-96 -361 0
-97 -362 0
-98 -363 0
-99 -364 0
-100 -365 0
-96 -416 0
-97 -417 0
-98 -418 0
-99 -419 0
-100 -420 0
-101 -131 0
-102 -132 0
-103 -133 0
-104 -134 0
-105 -135 0
-101 -161 0
-102 -162 0
-103 -163 0
-104 -164 0
-105 -165 0
-101 -231 0
-102 -232 0
-103 -233 0
-104 -234 0
-105 -235 0
-101 -261 0
-102 -262 0
-103 -263 0
-104 -264 0
-105 -265 0
-101 -336 0
-102 -337 0
-103 -338 0
-104 -339 0
-105 -340 0
-101 -341 0
-102 -342 0
-103 -343 0
-104 -344 0
-105 -345 0
-101 -351 0
-102 -352 0
-103 -353 0
-104 -354 0
-105 -355 0
-101 -366 0
-102 -367 0
-103 -368 0
-104 -369 0
-105 -370 0
-101 -491 0
-102 -492 0
-103 -493 0
-104 -494 0
-105 -495 0
-106 -156 0
-107 -157 0
-108 -158 0
-109 -159 0
-110 -160 0
-106 -186 0
-107 -187 0
-108 -188 0
-109 -189 0
-110 -190 0
-106 -221 0
-107 -222 0
-108 -223 0
-109 -224 0
-110 -225 0
-106 -266 0
-107 -267 0
-108 -268 0
-109 -269 0
-110 -270 0
-106 -286 0
-107 -287 0
-108 -288 0
-109 -289 0
-110 -290 0
-106 -331 0
-107 -332 0
-108 -333 0
-109 -334 0
-110 -335 0
-106 -431 0
-107 -432 0
-108 -433 0
-109 -434 0
-110 -435 0
-106 -451 0
-107 -452 0
-108 -453 0
-109 -454 0
-110 -455 0
-106 -486 0
-107 -487 0
-108 -488 0
-109 -489 0
-110 -490 0
-111 -156 0
-112 -157 0
-113 -158 0
-114 -159 0
-115 -160 0
-111 -211 0
-112 -212 0
-113 -213 0
-114 -214 0
-115 -215 0
-111 -241 0
-112 -242 0
-113 -243 0
-114 -244 0
-115 -245 0
-111 -316 0
-112 -317 0
-113 -318 0
-114 -319 0
-115 -320 0
-111 -326 0
-112 -327 0
-113 -328 0
-114 -329 0
-115 -330 0
-111 -386 0
-112 -387 0
-113 -388 0
-114 -389 0
-115 -390 0
-116 -316 0
-117 -317 0
-118 -318 0
-119 -319 0
-120 -320 0
-116 -351 0
-117 -352 0
-118 -353 0
-119 -354 0
-120 -355 0
-116 -411 0
-117 -412 0
-118 -413 0
-119 -414 0
-120 -415 0
-116 -416 0
-117 -417 0
-118 -418 0
-119 -419 0
-120 -420 0
-116 -421 0
-117 -422 0
-118 -423 0
-119 -424 0
-120 -425 0
-121 -161 0
-122 -162 0
-123 -163 0
-124 -164 0
-125 -165 0
-121 -191 0
-122 -192 0
-123 -193 0
-124 -194 0
-125 -195 0
-121 -246 0
-122 -247 0
-123 -248 0
-124 -249 0
-125 -250 0
-121 -371 0
-122 -372 0
-123 -373 0
-124 -374 0
-125 -375 0
-121 -446 0
-122 -447 0
-123 -448 0
-124 -449 0
-125 -450 0
-126 -296 0
-127 -297 0
-128 -298 0
-129 -299 0
-130 -300 0
-126 -341 0
-127 -342 0
-128 -343 0
-129 -344 0
-130 -345 0
-126 -396 0
-127 -397 0
-128 -398 0
-129 -399 0
-130 -400 0
-131 -186 0
-132 -187 0
-133 -188 0
-134 -189 0
-135 -190 0
-131 -231 0
-132 -232 0
-133 -233 0
-134 -234 0
-135 -235 0
-131 -256 0
-132 -257 0
-133 -258 0
-134 -259 0
-135 -260 0
-131 -276 0
-132 -277 0
-133 -278 0
-134 -279 0
-135 -280 0
-131 -356 0
-132 -357 0
-133 -358 0
-134 -359 0
-135 -360 0
-131 -391 0
-132 -392 0
-133 -393 0
-134 -394 0
-135 -395 0
-131 -416 0
-132 -417 0
-133 -418 0
-134 -419 0
-135 -420 0
-131 -431 0
-132 -432 0
-133 -433 0
-134 -434 0
-135 -435 0
-136 -411 0
-137 -412 0
-138 -413 0
-139 -414 0
-140 -415 0
-136 -416 0
-137 -417 0
-138 -418 0
-139 -419 0
-140 -420 0
-141 -191 0
-142 -192 0
-143 -193 0
-144 -194 0
-145 -195 0
-141 -211 0
-142 -212 0
-143 -213 0
-144 -214 0
-145 -215 0
-141 -221 0
-142 -222 0
-143 -223 0
-144 -224 0
-145 -225 0
-141 -371 0
-142 -372 0
-143 -373 0
-144 -374 0
-145 -375 0
-141 -441 0
-142 -442 0
-143 -443 0
-144 -444 0
-145 -445 0
-146 -276 0
-147 -277 0
-148 -278 0
-149 -279 0
-150 -280 0
-146 -341 0
-147 -342 0
-148 -343 0
-149 -344 0
-150 -345 0
-146 -386 0
-147 -387 0
-148 -388 0
-149 -389 0
-150 -390 0
-146 -426 0
-147 -427 0
-148 -428 0
-149 -429 0
-150 -430 0
-151 -226 0
-152 -227 0
-153 -228 0
-154 -229 0
-155 -230 0
-151 -326 0
-152 -327 0
-153 -328 0
-154 -329 0
-155 -330 0
-151 -361 0
-152 -362 0
-153 -363 0
-154 -364 0
-155 -365 0
-151 -456 0
-152 -457 0
-153 -458 0
-154 -459 0
-155 -460 0
-156 -256 0
-157 -257 0
-158 -258 0
-159 -259 0
-160 -260 0
-156 -281 0
-157 -282 0
-158 -283 0
-159 -284 0
-160 -285 0
-156 -331 0
-157 -332 0
-158 -333 0
-159 -334 0
-160 -335 0
-156 -381 0
-157 -382 0
-158 -383 0
-159 -384 0
-160 -385 0
-156 -386 0
-157 -387 0
-158 -388 0
-159 -389 0
-160 -390 0
-156 -401 0
-157 -402 0
-158 -403 0
-159 -404 0
-160 -405 0
-161 -211 0
-162 -212 0
-163 -213 0
-164 -214 0
-165 -215 0
-161 -216 0
-162 -217 0
-163 -218 0
-164 -219 0
-165 -220 0
-161 -291 0
-162 -292 0
-163 -293 0
-164 -294 0
-165 -295 0
-161 -306 0
-162 -307 0
-163 -308 0
-164 -309 0
-165 -310 0
-161 -396 0
-162 -397 0
-163 -398 0
-164 -399 0
-165 -400 0
-161 -406 0
-162 -407 0
-163 -408 0
-164 -409 0
-165 -410 0
-166 -241 0
-167 -242 0
-168 -243 0
-169 -244 0
-170 -245 0
-166 -301 0
-167 -302 0
-168 -303 0
-169 -304 0
-170 -305 0
-166 -401 0
-167 -402 0
-168 -403 0
-169 -404 0
-170 -405 0
-166 -436 0
-167 -437 0
-168 -438 0
-169 -439 0
-170 -440 0
-166 -441 0
-167 -442 0
-168 -443 0
-169 -444 0
-170 -445 0
-166 -476 0
-167 -477 0
-168 -478 0
-169 -479 0
-170 -480 0
-171 -206 0
-172 -207 0
-173 -208 0
-174 -209 0
-175 -210 0
-171 -246 0
-172 -247 0
-173 -248 0
-174 -249 0
-175 -250 0
-171 -336 0
-172 -337 0
-173 -338 0
-174 -339 0
-175 -340 0
-171 -346 0
-172 -347 0
-173 -348 0
-174 -349 0
-175 -350 0
-171 -386 0
-172 -387 0
-173 -388 0
-174 -389 0
-175 -390 0
-171 -411 0
-172 -412 0
-173 -413 0
-174 -414 0
-175 -415 0
-171 -456 0
-172 -457 0
-173 -458 0
-174 -459 0
-175 -460 0
-176 -201 0
-177 -202 0
-178 -203 0
-179 -204 0
-180 -205 0
-176 -221 0
-177 -222 0
-178 -223 0
-179 -224 0
-180 -225 0
-176 -341 0
-177 -342 0
-178 -343 0
-179 -344 0
-180 -345 0
-176 -476 0
-177 -477 0
-178 -478 0
-179 -479 0
-180 -480 0
-181 -211 0
-182 -212 0
-183 -213 0
-184 -214 0
-185 -215 0
-181 -311 0
-182 -312 0
-183 -313 0
-184 -314 0
-185 -315 0
-181 -321 0
-182 -322 0
-183 -323 0
-184 -324 0
-185 -325 0
-181 -476 0
-182 -477 0
-183 -478 0
-184 -479 0
-185 -480 0
-186 -251 0
-187 -252 0
-188 -253 0
-189 -254 0
-190 -255 0
-186 -271 0
-187 -272 0
-188 -273 0
-189 -274 0
-190 -275 0
-186 -296 0
-187 -297 0
-188 -298 0
-189 -299 0
-190 -300 0
-186 -341 0
-187 -342 0
-188 -343 0
-189 -344 0
-190 -345 0
-186 -381 0
-187 -382 0
-188 -383 0
-189 -384 0
-190 -385 0
-186 -441 0
-187 -442 0
-188 -443 0
-189 -444 0
-190 -445 0
-186 -451 0
-187 -452 0
-188 -453 0
-189 -454 0
-190 -455 0
-191 -221 0
-192 -222 0
-193 -223 0
-194 -224 0
-195 -225 0
-191 -246 0
-192 -247 0
-193 -248 0
-194 -249 0
-195 -250 0
-191 -316 0
-192 -317 0
-193 -318 0
-194 -319 0
-195 -320 0
-191 -351 0
-192 -352 0
-193 -353 0
-194 -354 0
-195 -355 0
-191 -411 0
-192 -412 0
-193 -413 0
-194 -414 0
-195 -415 0
-196 -256 0
-197 -257 0
-198 -258 0
-199 -259 0
-200 -260 0
-196 -311 0
-197 -312 0
-198 -313 0
-199 -314 0
-200 -315 0
-196 -366 0
-197 -367 0
-198 -368 0
-199 -369 0
-200 -370 0
-196 -401 0
-197 -402 0
-198 -403 0
-199 -404 0
-200 -405 0
-196 -406 0
-197 -407 0
-198 -408 0
-199 -409 0
-200 -410 0
-196 -416 0
-197 -417 0
-198 -418 0
-199 -419 0
-200 -420 0
-201 -256 0
-202 -257 0
-203 -258 0
-204 -259 0
-205 -260 0
-201 -266 0
-202 -267 0
-203 -268 0
-204 -269 0
-205 -270 0
-201 -281 0
-202 -282 0
-203 -283 0
-204 -284 0
-205 -285 0
-201 -436 0
-202 -437 0
-203 -438 0
-204 -439 0
-205 -440 0
-201 -441 0
-202 -442 0
-203 -443 0
-204 -444 0
-205 -445 0
-201 -461 0
-202 -462 0
-203 -463 0
-204 -464 0
-205 -465 0
-206 -336 0
-207 -337 0
-208 -338 0
-209 -339 0
-210 -340 0
-206 -341 0
-207 -342 0
-208 -343 0
-209 -344 0
-210 -345 0
-206 -361 0
-207 -362 0
-208 -363 0
-209 -364 0
-210 -365 0
-206 -476 0
-207 -477 0
-208 -478 0
-209 -479 0
-210 -480 0
-211 -276 0
-212 -277 0
-213 -278 0
-214 -279 0
-215 -280 0
-211 -321 0
-212 -322 0
-213 -323 0
-214 -324 0
-215 -325 0
-211 -371 0
-212 -372 0
-213 -373 0
-214 -374 0
-215 -375 0
-216 -446 0
-217 -447 0
-218 -448 0
-219 -449 0
-220 -450 0
-216 -466 0
-217 -467 0
-218 -468 0
-219 -469 0
-220 -470 0
-221 -246 0
-222 -247 0
-223 -248 0
-224 -249 0
-225 -250 0
-221 -356 0
-222 -357 0
-223 -358 0
-224 -359 0
-225 -360 0
-221 -381 0
-222 -382 0
-223 -383 0
-224 -384 0
-225 -385 0
-221 -426 0
-222 -427 0
-223 -428 0
-224 -429 0
-225 -430 0
-221 -471 0
-222 -472 0
-223 -473 0
-224 -474 0
-225 -475 0
-221 -476 0
-222 -477 0
-223 -478 0
-224 -479 0
-225 -480 0
-226 -276 0
-227 -277 0
-228 -278 0
-229 -279 0
-230 -280 0
-226 -291 0
-227 -292 0
-228 -293 0
-229 -294 0
-230 -295 0
-226 -331 0
-227 -332 0
-228 -333 0
-229 -334 0
-230 -335 0
-226 -376 0
-227 -377 0
-228 -378 0
-229 -379 0
-230 -380 0
-226 -411 0
-227 -412 0
-228 -413 0
-229 -414 0
-230 -415 0
-226 -416 0
-227 -417 0
-228 -418 0
-229 -419 0
-230 -420 0
-231 -311 0
-232 -312 0
-233 -313 0
-234 -314 0
-235 -315 0
-231 -396 0
-232 -397 0
-233 -398 0
-234 -399 0
-235 -400 0
-231 -446 0
-232 -447 0
-233 -448 0
-234 -449 0
-235 -450 0
-231 -451 0
-232 -452 0
-233 -453 0
-234 -454 0
-235 -455 0
-231 -486 0
-232 -487 0
-233 -488 0
-234 -489 0
-235 -490 0
-236 -336 0
-237 -337 0
-238 -338 0
-239 -339 0
-240 -340 0
-236 -426 0
-237 -427 0
-238 -428 0
-239 -429 0
-240 -430 0
-236 -451 0
-237 -452 0
-238 -453 0
-239 -454 0
-240 -455 0
-236 -491 0
-237 -492 0
-238 -493 0
-239 -494 0
-240 -495 0
-241 -281 0
-242 -282 0
-243 -283 0
-244 -284 0
-245 -285 0
-241 -301 0
-242 -302 0
-243 -303 0
-244 -304 0
-245 -305 0
-241 -406 0
-242 -407 0
-243 -408 0
-244 -409 0
-245 -410 0
-246 -311 0
-247 -312 0
-248 -313 0
-249 -314 0
-250 -315 0
-246 -351 0
-247 -352 0
-248 -353 0
-249 -354 0
-250 -355 0
-246 -361 0
-247 -362 0
-248 -363 0
-249 -364 0
-250 -365 0
-246 -426 0
-247 -427 0
-248 -428 0
-249 -429 0
-250 -430 0
-246 -441 0
-247 -442 0
-248 -443 0
-249 -444 0
-250 -445 0
-251 -321 0
-252 -322 0
-253 -323 0
-254 -324 0
-255 -325 0
-251 -331 0
-252 -332 0
-253 -333 0
-254 -334 0
-255 -335 0
-251 -496 0
-252 -497 0
-253 -498 0
-254 -499 0
-255 -500 0
-256 -286 0
-257 -287 0
-258 -288 0
-259 -289 0
-260 -290 0
-256 -301 0
-257 -302 0
-258 -303 0
-259 -304 0
-260 -305 0
-256 -336 0
-257 -337 0
-258 -338 0
-259 -339 0
-260 -340 0
-256 -356 0
-257 -357 0
-258 -358 0
-259 -359 0
-260 -360 0
-256 -441 0
-257 -442 0
-258 -443 0
-259 -444 0
-260 -445 0
-261 -296 0
-262 -297 0
-263 -298 0
-264 -299 0
-265 -300 0
-261 -416 0
-262 -417 0
-263 -418 0
-264 -419 0
-265 -420 0
-261 -431 0
-262 -432 0
-263 -433 0
-264 -434 0
-265 -435 0
-261 -446 0
-262 -447 0
-263 -448 0
-264 -449 0
-265 -450 0
-261 -456 0
-262 -457 0
-263 -458 0
-264 -459 0
-265 -460 0
-266 -386 0
-267 -387 0
-268 -388 0
-269 -389 0
-270 -390 0
-266 -411 0
-267 -412 0
-268 -413 0
-269 -414 0
-270 -415 0
-266 -431 0
-267 -432 0
-268 -433 0
-269 -434 0
-270 -435 0
-271 -446 0
-272 -447 0
-273 -448 0
-274 -449 0
-275 -450 0
-271 -471 0
-272 -472 0
-273 -473 0
-274 -474 0
-275 -475 0
-276 -341 0
-277 -342 0
-278 -343 0
-279 -344 0
-280 -345 0
-281 -311 0
-282 -312 0
-283 -313 0
-284 -314 0
-285 -315 0
-281 -406 0
-282 -407 0
-283 -408 0
-284 -409 0
-285 -410 0
-281 -416 0
-282 -417 0
-283 -418 0
-284 -419 0
-285 -420 0
-281 -441 0
-282 -442 0
-283 -443 0
-284 -444 0
-285 -445 0
-286 -416 0
-287 -417 0
-288 -418 0
-289 -419 0
-290 -420 0
-291 -351 0
-292 -352 0
-293 -353 0
-294 -354 0
-295 -355 0
-291 -491 0
-292 -492 0
-293 -493 0
-294 -494 0
-295 -495 0
-296 -391 0
-297 -392 0
-298 -393 0
-299 -394 0
-300 -395 0
-296 -426 0
-297 -427 0
-298 -428 0
-299 -429 0
-300 -430 0
-296 -496 0
-297 -497 0
-298 -498 0
-299 -499 0
-300 -500 0
-301 -371 0
-302 -372 0
-303 -373 0
-304 -374 0
-305 -375 0
-306 -346 0
-307 -347 0
-308 -348 0
-309 -349 0
-310 -350 0
-306 -366 0
-307 -367 0
-308 -368 0
-309 -369 0
-310 -370 0
-306 -371 0
-307 -372 0
-308 -373 0
-309 -374 0
-310 -375 0
-306 -396 0
-307 -397 0
-308 -398 0
-309 -399 0
-310 -400 0
-316 -351 0
-317 -352 0
-318 -353 0
-319 -354 0
-320 -355 0
-316 -411 0
-317 -412 0
-318 -413 0
-319 -414 0
-320 -415 0
-321 -376 0
-322 -377 0
-323 -378 0
-324 -379 0
-325 -380 0
-321 -391 0
-322 -392 0
-323 -393 0
-324 -394 0
-325 -395 0
-321 -396 0
-322 -397 0
-323 -398 0
-324 -399 0
-325 -400 0
-321 -416 0
-322 -417 0
-323 -418 0
-324 -419 0
-325 -420 0
-321 -471 0
-322 -472 0
-323 -473 0
-324 -474 0
-325 -475 0
-321 -496 0
-322 -497 0
-323 -498 0
-324 -499 0
-325 -500 0
-331 -366 0
-332 -367 0
-333 -368 0
-334 -369 0
-335 -370 0
-331 -376 0
-332 -377 0
-333 -378 0
-334 -379 0
-335 -380 0
-331 -426 0
-332 -427 0
-333 -428 0
-334 -429 0
-335 -430 0
-331 -486 0
-332 -487 0
-333 -488 0
-334 -489 0
-335 -490 0
-336 -376 0
-337 -377 0
-338 -378 0
-339 -379 0
-340 -380 0
-336 -396 0
-337 -397 0
-338 -398 0
-339 -399 0
-340 -400 0
-341 -436 0
-342 -437 0
-343 -438 0
-344 -439 0
-345 -440 0
-341 -476 0
-342 -477 0
-343 -478 0
-344 -479 0
-345 -480 0
-341 -491 0
-342 -492 0
-343 -493 0
-344 -494 0
-345 -495 0
-346 -371 0
-347 -372 0
-348 -373 0
-349 -374 0
-350 -375 0
-346 -376 0
-347 -377 0
-348 -378 0
-349 -379 0
-350 -380 0
-346 -381 0
-347 -382 0
-348 -383 0
-349 -384 0
-350 -385 0
-346 -466 0
-347 -467 0
-348 -468 0
-349 -469 0
-350 -470 0
-346 -476 0
-347 -477 0
-348 -478 0
-349 -479 0
-350 -480 0
-351 -376 0
-352 -377 0
-353 -378 0
-354 -379 0
-355 -380 0
-351 -426 0
-352 -427 0
-353 -428 0
-354 -429 0
-355 -430 0
-351 -451 0
-352 -452 0
-353 -453 0
-354 -454 0
-355 -455 0
-351 -476 0
-352 -477 0
-353 -478 0
-354 -479 0
-355 -480 0
-351 -491 0
-352 -492 0
-353 -493 0
-354 -494 0
-355 -495 0
-356 -416 0
-357 -417 0
-358 -418 0
-359 -419 0
-360 -420 0
-356 -476 0
-357 -477 0
-358 -478 0
-359 -479 0
-360 -480 0
-361 -416 0
-362 -417 0
-363 -418 0
-364 -419 0
-365 -420 0
-366 -456 0
-367 -457 0
-368 -458 0
-369 -459 0
-370 -460 0
-366 -471 0
-367 -472 0
-368 -473 0
-369 -474 0
-370 -475 0
-376 -436 0
-377 -437 0
-378 -438 0
-379 -439 0
-380 -440 0
-376 -446 0
-377 -447 0
-378 -448 0
-379 -449 0
-380 -450 0
-381 -426 0
-382 -427 0
-383 -428 0
-384 -429 0
-385 -430 0
-381 -451 0
-382 -452 0
-383 -453 0
-384 -454 0
-385 -455 0
-386 -436 0
-387 -437 0
-388 -438 0
-389 -439 0
-390 -440 0
-386 -466 0
-387 -467 0
-388 -468 0
-389 -469 0
-390 -470 0
-391 -476 0
-392 -477 0
-393 -478 0
-394 -479 0
-395 -480 0
-396 -496 0
-397 -497 0
-398 -498 0
-399 -499 0
-400 -500 0
-401 -426 0
-402 -427 0
-403 -428 0
-404 -429 0
-405 -430 0
-406 -446 0
-407 -447 0
-408 -448 0
-409 -449 0
-410 -450 0
-406 -481 0
-407 -482 0
-408 -483 0
-409 -484 0
-410 -485 0
-421 -461 0
-422 -462 0
-423 -463 0
-424 -464 0
-425 -465 0
-421 -486 0
-422 -487 0
-423 -488 0
-424 -489 0
-425 -490 0
-426 -471 0
-427 -472 0
-428 -473 0
-429 -474 0
-430 -475 0
-436 -471 0
-437 -472 0
-438 -473 0
-439 -474 0
-440 -475 0
-451 -481 0
-452 -482 0
-453 -483 0
-454 -484 0
-455 -485 0
